nzones = 0;
nturb = 40;

R = 38.5;

w = 3000;
h = 3000;

zx = [];
zy = [];
zwidth = [];
zheight = [];

init_x = [ 0, 0, 0, 0, 0, 500, 500, 500, 500, 500, 500, 1000, 1000, 1000, 1000, 1000, 1000, 1500, 1500, 1500, 1500, 1500, 2000, 2000, 2000, 2000, 2000, 2000, 2500, 2500, 2500, 2500, 2500, 2500, 3000, 3000, 3000, 3000, 3000, 3000 ];
init_y = [ 0, 1200, 1800, 2400, 3000, 0, 600, 1200, 1800, 2400, 3000, 0, 600, 1200, 1800, 2400, 3000, 0, 600, 1200, 2400, 3000, 0, 600, 1200, 1800, 2400, 3000, 0, 600, 1200, 1800, 2400, 3000, 0, 600, 1200, 1800, 2400, 3000 ];
